s td 120 10 134
b 1 1 3
b 2 2 131
b 3 3 132
b 4 50 52
b 5 51 95
b 6 52 96
b 7 24 27 29
b 8 25 26 28
b 9 26 28 129
b 10 27 29 130
b 11 28 48 129
b 12 29 49 130
b 13 53 56 58
b 14 54 55 57
b 15 36 55 57
b 16 37 56 58
b 17 36 57 63
b 18 37 58 64
b 19 59 62 64
b 20 60 61 63
b 21 44 61 63
b 22 45 62 64
b 23 36 44 63
b 24 37 45 64
b 25 65 68 70
b 26 66 67 69
b 27 67 69 105
b 28 68 70 106
b 29 12 69 105
b 30 13 70 106
b 31 71 74 76
b 32 72 73 75
b 33 10 73 75
b 34 11 74 76
b 35 10 75 91
b 36 11 76 92
b 37 89 90 95
b 38 87 88 96
b 39 97 100 102
b 40 98 99 101
b 41 38 99 101
b 42 39 100 102
b 43 38 93 101
b 44 39 94 102
b 45 103 106 108
b 46 104 105 107
b 47 12 105 107
b 48 13 106 108
b 49 12 107 115
b 50 13 108 116
b 51 119 122 124
b 52 120 121 123
b 53 117 121 123
b 54 118 122 124
b 55 117 123 133
b 56 118 124 134
b 57 126 128 131
b 58 125 127 132
b 59 4 8 10 12 13 44 45 81 82
b 60 5 8 10 13
b 61 4 8 10 12 22 35 44 45 81 82
b 62 4 8 10 12 22 35 44 45 92
b 63 4 6 8 12 92
b 64 4 6 11 92
b 65 10 22 35 44 45 92 93 94
b 66 22 35 39 44 45 93 94
b 67 22 35 38 39 44 45 93
b 68 22 34 35 38 39 44 45
b 69 30 34 35 38 39 45
b 70 30 34 37 38 45
b 71 32 34 37 38
b 72 31 34 35 38 39 44
b 73 31 35 36 38 44
b 74 33 35 36 38
b 75 10 91 92 93 94
b 76 88 91 92 93 94
b 77 87 88 92 94
b 78 90 91 92 93 94
b 79 89 90 91 94
b 80 4 8 9 10 12 22 35 81 82
b 81 7 9 10 12
b 82 8 9 22 23 35 81 82
b 83 8 9 21 22 23 81 82
b 84 8 20 21 22 23 81 82
b 85 19 20 21 22 23 82
b 86 14 19 21 23
b 87 17 19 20 22
b 88 15 20 21 22 23 81
b 89 15 16 21 22 81
b 90 15 16 18 81
b 91 12 13 44 45 81 82 113 114 129 130
b 92 44 45 81 82 84 113 114 129 130
b 93 44 45 81 82 83 84 113 129 130
b 94 44 45 49 81 82 83 84 129 130
b 95 44 45 48 49 81 82 83 84 129
b 96 44 45 48 49 78 81 82 83 84
b 97 44 45 48 49 77 78 82 84
b 98 44 45 47 48 49 77 78
b 99 40 45 47 49
b 100 42 44 47 48
b 101 47 77 78 86
b 102 44 45 48 49 80 81 82 83 84
b 103 41 44 45 48 49 80 81 84
b 104 41 45 48 79 80 81 84
b 105 41 45 48 79 80 85
b 106 41 43 45 48 85
b 107 41 43 46 85
b 108 12 13 113 114 129 130 133 134
b 109 12 13 113 114 118 133 134
b 110 12 13 113 114 117 118 133
b 111 13 113 114 116 117 118
b 112 109 114 116 118
b 113 111 113 116 117
b 114 12 112 113 114 117 118
b 115 12 110 112 113 118
b 116 12 110 112 115
b 117 125 129 130 133 134
b 118 125 127 129 133
b 119 128 129 130 133 134
b 120 126 128 129 134
1 3
2 57
3 58
4 6
5 37
6 38
7 10
8 9
9 11
10 12
11 95
12 94
13 16
14 15
15 17
16 18
17 23
18 24
19 22
20 21
21 23
22 24
23 73
24 70
25 28
26 27
27 29
28 30
29 47
30 48
31 34
32 33
33 35
34 36
35 75
36 64
37 79
38 77
39 42
40 41
41 43
42 44
43 67
44 66
45 48
46 47
47 49
48 50
49 116
50 111
51 54
52 53
53 55
54 56
55 110
56 109
57 120
58 118
59 60
59 61
59 91
61 62
61 80
62 63
62 65
63 64
65 66
65 75
66 67
67 68
68 69
68 72
69 70
70 71
72 73
73 74
75 76
75 78
76 77
78 79
80 81
80 82
82 83
83 84
84 85
84 88
85 86
85 87
88 89
89 90
91 92
91 108
92 93
93 94
94 95
95 96
95 102
96 97
97 98
98 99
98 100
98 101
102 103
103 104
104 105
105 106
106 107
108 109
108 117
108 119
109 110
110 111
110 114
111 112
111 113
114 115
115 116
117 118
119 120
